p edges 6 12
e 1 2
e 1 5
e 1 6
e 2 3
e 2 5
e 2 6
e 3 4
e 3 5
e 3 6
e 4 5
e 4 6
e 5 6
w 1 666
w 2 333
w 3 333
w 4 666
w 5 333
w 6 333
n 1 x192
n 2 x241
n 3 x1830
n 4 x1981
n 5 x6673
n 6 x7649
o 1 192
o 2 241
o 3 1830
o 4 1981
o 5 6673
o 6 7649
